c nIsolatedPIs 72
c maxPI 128
p cnf 441 940
c gate 129 -47 -111 0
-47 -129 0
-111 -129 0
47 111 129 0
c gate 130 -46 -110 0
-46 -130 0
-110 -130 0
46 110 130 0
c gate 131 -129 -130 0
-129 -131 0
-130 -131 0
129 130 131 0
c gate 132 45 109 0
45 -132 0
109 -132 0
-45 -109 132 0
c gate 133 46 110 0
46 -133 0
110 -133 0
-46 -110 133 0
c gate 134 -132 -133 0
-132 -134 0
-133 -134 0
132 133 134 0
c gate 135 131 -134 0
131 -135 0
-134 -135 0
-131 134 135 0
c gate 136 47 111 0
47 -136 0
111 -136 0
-47 -111 136 0
c gate 137 48 112 0
48 -137 0
112 -137 0
-48 -112 137 0
c gate 138 -136 -137 0
-136 -138 0
-137 -138 0
136 137 138 0
c gate 139 -135 138 0
-135 -139 0
138 -139 0
135 -138 139 0
c gate 140 -42 -106 0
-42 -140 0
-106 -140 0
42 106 140 0
c gate 141 -43 -107 0
-43 -141 0
-107 -141 0
43 107 141 0
c gate 142 -140 -141 0
-140 -142 0
-141 -142 0
140 141 142 0
c gate 143 41 105 0
41 -143 0
105 -143 0
-41 -105 143 0
c gate 144 42 106 0
42 -144 0
106 -144 0
-42 -106 144 0
c gate 145 -143 -144 0
-143 -145 0
-144 -145 0
143 144 145 0
c gate 146 142 -145 0
142 -146 0
-145 -146 0
-142 145 146 0
c gate 147 43 107 0
43 -147 0
107 -147 0
-43 -107 147 0
c gate 148 44 108 0
44 -148 0
108 -148 0
-44 -108 148 0
c gate 149 -147 -148 0
-147 -149 0
-148 -149 0
147 148 149 0
c gate 150 -146 149 0
-146 -150 0
149 -150 0
146 -149 150 0
c gate 151 40 104 0
40 -151 0
104 -151 0
-40 -104 151 0
c gate 152 -39 -103 0
-39 -152 0
-103 -152 0
39 103 152 0
c gate 153 -40 -104 0
-40 -153 0
-104 -153 0
40 104 153 0
c gate 154 -152 -153 0
-152 -154 0
-153 -154 0
152 153 154 0
c gate 155 -38 -102 0
-38 -155 0
-102 -155 0
38 102 155 0
c gate 156 37 101 0
37 -156 0
101 -156 0
-37 -101 156 0
c gate 157 -155 156 0
-155 -157 0
156 -157 0
155 -156 157 0
c gate 158 39 103 0
39 -158 0
103 -158 0
-39 -103 158 0
c gate 159 38 102 0
38 -159 0
102 -159 0
-38 -102 159 0
c gate 160 -158 -159 0
-158 -160 0
-159 -160 0
158 159 160 0
c gate 161 -157 160 0
-157 -161 0
160 -161 0
157 -160 161 0
c gate 162 154 -161 0
154 -162 0
-161 -162 0
-154 161 162 0
c gate 163 -151 -162 0
-151 -163 0
-162 -163 0
151 162 163 0
c gate 164 -36 -100 0
-36 -164 0
-100 -164 0
36 100 164 0
c gate 165 35 99 0
35 -165 0
99 -165 0
-35 -99 165 0
c gate 166 36 100 0
36 -166 0
100 -166 0
-36 -100 166 0
c gate 167 -165 -166 0
-165 -167 0
-166 -167 0
165 166 167 0
c gate 168 33 97 0
33 -168 0
97 -168 0
-33 -97 168 0
c gate 169 34 98 0
34 -169 0
98 -169 0
-34 -98 169 0
c gate 170 -168 -169 0
-168 -170 0
-169 -170 0
168 169 170 0
c gate 171 -34 -98 0
-34 -171 0
-98 -171 0
34 98 171 0
c gate 172 -35 -99 0
-35 -172 0
-99 -172 0
35 99 172 0
c gate 173 -171 -172 0
-171 -173 0
-172 -173 0
171 172 173 0
c gate 174 -170 173 0
-170 -174 0
173 -174 0
170 -173 174 0
c gate 175 167 -174 0
167 -175 0
-174 -175 0
-167 174 175 0
c gate 176 -164 -175 0
-164 -176 0
-175 -176 0
164 175 176 0
c gate 177 -32 -96 0
-32 -177 0
-96 -177 0
32 96 177 0
c gate 178 32 96 0
32 -178 0
96 -178 0
-32 -96 178 0
c gate 179 31 95 0
31 -179 0
95 -179 0
-31 -95 179 0
c gate 180 -178 -179 0
-178 -180 0
-179 -180 0
178 179 180 0
c gate 181 -31 -95 0
-31 -181 0
-95 -181 0
31 95 181 0
c gate 182 -30 -94 0
-30 -182 0
-94 -182 0
30 94 182 0
c gate 183 -181 -182 0
-181 -183 0
-182 -183 0
181 182 183 0
c gate 184 29 93 0
29 -184 0
93 -184 0
-29 -93 184 0
c gate 185 30 94 0
30 -185 0
94 -185 0
-30 -94 185 0
c gate 186 -184 -185 0
-184 -186 0
-185 -186 0
184 185 186 0
c gate 187 -29 -93 0
-29 -187 0
-93 -187 0
29 93 187 0
c gate 188 -28 -92 0
-28 -188 0
-92 -188 0
28 92 188 0
c gate 189 -187 -188 0
-187 -189 0
-188 -189 0
187 188 189 0
c gate 190 -27 -91 0
-27 -190 0
-91 -190 0
27 91 190 0
c gate 191 -26 -90 0
-26 -191 0
-90 -191 0
26 90 191 0
c gate 192 -190 -191 0
-190 -192 0
-191 -192 0
190 191 192 0
c gate 193 25 89 0
25 -193 0
89 -193 0
-25 -89 193 0
c gate 194 26 90 0
26 -194 0
90 -194 0
-26 -90 194 0
c gate 195 -193 -194 0
-193 -195 0
-194 -195 0
193 194 195 0
c gate 196 192 -195 0
192 -196 0
-195 -196 0
-192 195 196 0
c gate 197 27 91 0
27 -197 0
91 -197 0
-27 -91 197 0
c gate 198 28 92 0
28 -198 0
92 -198 0
-28 -92 198 0
c gate 199 -197 -198 0
-197 -199 0
-198 -199 0
197 198 199 0
c gate 200 -196 199 0
-196 -200 0
199 -200 0
196 -199 200 0
c gate 201 189 -200 0
189 -201 0
-200 -201 0
-189 200 201 0
c gate 202 186 -201 0
186 -202 0
-201 -202 0
-186 201 202 0
c gate 203 183 -202 0
183 -203 0
-202 -203 0
-183 202 203 0
c gate 204 180 -203 0
180 -204 0
-203 -204 0
-180 203 204 0
c gate 205 -177 -204 0
-177 -205 0
-204 -205 0
177 204 205 0
c gate 206 -22 -86 0
-22 -206 0
-86 -206 0
22 86 206 0
c gate 207 -23 -87 0
-23 -207 0
-87 -207 0
23 87 207 0
c gate 208 -206 -207 0
-206 -208 0
-207 -208 0
206 207 208 0
c gate 209 -21 -85 0
-21 -209 0
-85 -209 0
21 85 209 0
c gate 210 208 -209 0
208 -210 0
-209 -210 0
-208 209 210 0
c gate 211 19 83 0
19 -211 0
83 -211 0
-19 -83 211 0
c gate 212 20 84 0
20 -212 0
84 -212 0
-20 -84 212 0
c gate 213 -211 -212 0
-211 -213 0
-212 -213 0
211 212 213 0
c gate 214 -20 -84 0
-20 -214 0
-84 -214 0
20 84 214 0
c gate 215 -213 -214 0
-213 -215 0
-214 -215 0
213 214 215 0
c gate 216 -19 -83 0
-19 -216 0
-83 -216 0
19 83 216 0
c gate 217 -214 -216 0
-214 -217 0
-216 -217 0
214 216 217 0
c gate 218 213 217 0
213 -218 0
217 -218 0
-213 -217 218 0
c gate 219 17 81 0
17 -219 0
81 -219 0
-17 -81 219 0
c gate 220 18 82 0
18 -220 0
82 -220 0
-18 -82 220 0
c gate 221 -219 -220 0
-219 -221 0
-220 -221 0
219 220 221 0
c gate 222 -18 -82 0
-18 -222 0
-82 -222 0
18 82 222 0
c gate 223 -221 -222 0
-221 -223 0
-222 -223 0
221 222 223 0
c gate 224 218 223 0
218 -224 0
223 -224 0
-218 -223 224 0
c gate 225 -215 -224 0
-215 -225 0
-224 -225 0
215 224 225 0
c gate 226 210 -225 0
210 -226 0
-225 -226 0
-210 225 226 0
c gate 227 22 86 0
22 -227 0
86 -227 0
-22 -86 227 0
c gate 228 21 85 0
21 -228 0
85 -228 0
-21 -85 228 0
c gate 229 -227 -228 0
-227 -229 0
-228 -229 0
227 228 229 0
c gate 230 208 -229 0
208 -230 0
-229 -230 0
-208 229 230 0
c gate 231 24 88 0
24 -231 0
88 -231 0
-24 -88 231 0
c gate 232 23 87 0
23 -232 0
87 -232 0
-23 -87 232 0
c gate 233 -231 -232 0
-231 -233 0
-232 -233 0
231 232 233 0
c gate 234 -230 233 0
-230 -234 0
233 -234 0
230 -233 234 0
c gate 235 -226 234 0
-226 -235 0
234 -235 0
226 -234 235 0
c gate 236 -25 -89 0
-25 -236 0
-89 -236 0
25 89 236 0
c gate 237 -177 -236 0
-177 -237 0
-236 -237 0
177 236 237 0
c gate 238 180 237 0
180 -238 0
237 -238 0
-180 -237 238 0
c gate 239 183 186 0
183 -239 0
186 -239 0
-183 -186 239 0
c gate 240 189 192 0
189 -240 0
192 -240 0
-189 -192 240 0
c gate 241 239 240 0
239 -241 0
240 -241 0
-239 -240 241 0
c gate 242 238 241 0
238 -242 0
241 -242 0
-238 -241 242 0
c gate 243 200 242 0
200 -243 0
242 -243 0
-200 -242 243 0
c gate 244 -24 -88 0
-24 -244 0
-88 -244 0
24 88 244 0
c gate 245 243 -244 0
243 -245 0
-244 -245 0
-243 244 245 0
c gate 246 -235 245 0
-235 -246 0
245 -246 0
235 -245 246 0
c gate 247 -205 -246 0
-205 -247 0
-246 -247 0
205 246 247 0
c gate 248 -33 -97 0
-33 -248 0
-97 -248 0
33 97 248 0
c gate 249 -164 -248 0
-164 -249 0
-248 -249 0
164 248 249 0
c gate 250 167 249 0
167 -250 0
249 -250 0
-167 -249 250 0
c gate 251 170 173 0
170 -251 0
173 -251 0
-170 -173 251 0
c gate 252 250 251 0
250 -252 0
251 -252 0
-250 -251 252 0
c gate 253 -247 252 0
-247 -253 0
252 -253 0
247 -252 253 0
c gate 254 -176 -253 0
-176 -254 0
-253 -254 0
176 253 254 0
c gate 255 2 66 0
2 -255 0
66 -255 0
-2 -66 255 0
c gate 256 1 65 0
1 -256 0
65 -256 0
-1 -65 256 0
c gate 257 -255 -256 0
-255 -257 0
-256 -257 0
255 256 257 0
c gate 258 -3 -67 0
-3 -258 0
-67 -258 0
3 67 258 0
c gate 259 -2 -66 0
-2 -259 0
-66 -259 0
2 66 259 0
c gate 260 -258 -259 0
-258 -260 0
-259 -260 0
258 259 260 0
c gate 261 -257 260 0
-257 -261 0
260 -261 0
257 -260 261 0
c gate 262 4 68 0
4 -262 0
68 -262 0
-4 -68 262 0
c gate 263 3 67 0
3 -263 0
67 -263 0
-3 -67 263 0
c gate 264 -262 -263 0
-262 -264 0
-263 -264 0
262 263 264 0
c gate 265 -261 264 0
-261 -265 0
264 -265 0
261 -264 265 0
c gate 266 -4 -68 0
-4 -266 0
-68 -266 0
4 68 266 0
c gate 267 -5 -69 0
-5 -267 0
-69 -267 0
5 69 267 0
c gate 268 -266 -267 0
-266 -268 0
-267 -268 0
266 267 268 0
c gate 269 -265 268 0
-265 -269 0
268 -269 0
265 -268 269 0
c gate 270 6 70 0
6 -270 0
70 -270 0
-6 -70 270 0
c gate 271 5 69 0
5 -271 0
69 -271 0
-5 -69 271 0
c gate 272 -270 -271 0
-270 -272 0
-271 -272 0
270 271 272 0
c gate 273 -269 272 0
-269 -273 0
272 -273 0
269 -272 273 0
c gate 274 -7 -71 0
-7 -274 0
-71 -274 0
7 71 274 0
c gate 275 -6 -70 0
-6 -275 0
-70 -275 0
6 70 275 0
c gate 276 -274 -275 0
-274 -276 0
-275 -276 0
274 275 276 0
c gate 277 -273 276 0
-273 -277 0
276 -277 0
273 -276 277 0
c gate 278 7 71 0
7 -278 0
71 -278 0
-7 -71 278 0
c gate 279 8 72 0
8 -279 0
72 -279 0
-8 -72 279 0
c gate 280 -278 -279 0
-278 -280 0
-279 -280 0
278 279 280 0
c gate 281 -277 280 0
-277 -281 0
280 -281 0
277 -280 281 0
c gate 282 -9 -73 0
-9 -282 0
-73 -282 0
9 73 282 0
c gate 283 -10 -74 0
-10 -283 0
-74 -283 0
10 74 283 0
c gate 284 -8 -72 0
-8 -284 0
-72 -284 0
8 72 284 0
c gate 285 -283 -284 0
-283 -285 0
-284 -285 0
283 284 285 0
c gate 286 -282 285 0
-282 -286 0
285 -286 0
282 -285 286 0
c gate 287 -281 286 0
-281 -287 0
286 -287 0
281 -286 287 0
c gate 288 9 73 0
9 -288 0
73 -288 0
-9 -73 288 0
c gate 289 10 74 0
10 -289 0
74 -289 0
-10 -74 289 0
c gate 290 -288 -289 0
-288 -290 0
-289 -290 0
288 289 290 0
c gate 291 -287 290 0
-287 -291 0
290 -291 0
287 -290 291 0
c gate 292 -11 -75 0
-11 -292 0
-75 -292 0
11 75 292 0
c gate 293 283 288 0
283 -293 0
288 -293 0
-283 -288 293 0
c gate 294 -292 -293 0
-292 -294 0
-293 -294 0
292 293 294 0
c gate 295 -291 294 0
-291 -295 0
294 -295 0
291 -294 295 0
c gate 296 11 75 0
11 -296 0
75 -296 0
-11 -75 296 0
c gate 297 12 76 0
12 -297 0
76 -297 0
-12 -76 297 0
c gate 298 -296 -297 0
-296 -298 0
-297 -298 0
296 297 298 0
c gate 299 -295 298 0
-295 -299 0
298 -299 0
295 -298 299 0
c gate 300 -14 -78 0
-14 -300 0
-78 -300 0
14 78 300 0
c gate 301 -15 -79 0
-15 -301 0
-79 -301 0
15 79 301 0
c gate 302 -300 -301 0
-300 -302 0
-301 -302 0
300 301 302 0
c gate 303 14 78 0
14 -303 0
78 -303 0
-14 -78 303 0
c gate 304 13 77 0
13 -304 0
77 -304 0
-13 -77 304 0
c gate 305 -303 -304 0
-303 -305 0
-304 -305 0
303 304 305 0
c gate 306 -12 -76 0
-12 -306 0
-76 -306 0
12 76 306 0
c gate 307 -13 -77 0
-13 -307 0
-77 -307 0
13 77 307 0
c gate 308 -306 -307 0
-306 -308 0
-307 -308 0
306 307 308 0
c gate 309 305 308 0
305 -309 0
308 -309 0
-305 -308 309 0
c gate 310 302 309 0
302 -310 0
309 -310 0
-302 -309 310 0
c gate 311 -299 310 0
-299 -311 0
310 -311 0
299 -310 311 0
c gate 312 302 -305 0
302 -312 0
-305 -312 0
-302 305 312 0
c gate 313 16 80 0
16 -313 0
80 -313 0
-16 -80 313 0
c gate 314 15 79 0
15 -314 0
79 -314 0
-15 -79 314 0
c gate 315 -313 -314 0
-313 -315 0
-314 -315 0
313 314 315 0
c gate 316 -312 315 0
-312 -316 0
315 -316 0
312 -315 316 0
c gate 317 -311 316 0
-311 -317 0
316 -317 0
311 -316 317 0
c gate 318 -222 -244 0
-222 -318 0
-244 -318 0
222 244 318 0
c gate 319 -16 -80 0
-16 -319 0
-80 -319 0
16 80 319 0
c gate 320 -17 -81 0
-17 -320 0
-81 -320 0
17 81 320 0
c gate 321 -319 -320 0
-319 -321 0
-320 -321 0
319 320 321 0
c gate 322 318 321 0
318 -322 0
321 -322 0
-318 -321 322 0
c gate 323 221 322 0
221 -323 0
322 -323 0
-221 -322 323 0
c gate 324 210 218 0
210 -324 0
218 -324 0
-210 -218 324 0
c gate 325 323 324 0
323 -325 0
324 -325 0
-323 -324 325 0
c gate 326 234 325 0
234 -326 0
325 -326 0
-234 -325 326 0
c gate 327 243 326 0
243 -327 0
326 -327 0
-243 -326 327 0
c gate 328 -317 327 0
-317 -328 0
327 -328 0
317 -327 328 0
c gate 329 252 328 0
252 -329 0
328 -329 0
-252 -328 329 0
c gate 330 254 -329 0
254 -330 0
-329 -330 0
-254 329 330 0
c gate 331 -151 -155 0
-151 -331 0
-155 -331 0
151 155 331 0
c gate 332 -37 -101 0
-37 -332 0
-101 -332 0
37 101 332 0
c gate 333 -156 -332 0
-156 -333 0
-332 -333 0
156 332 333 0
c gate 334 331 333 0
331 -334 0
333 -334 0
-331 -333 334 0
c gate 335 154 160 0
154 -335 0
160 -335 0
-154 -160 335 0
c gate 336 334 335 0
334 -336 0
335 -336 0
-334 -335 336 0
c gate 337 -330 336 0
-330 -337 0
336 -337 0
330 -336 337 0
c gate 338 163 -337 0
163 -338 0
-337 -338 0
-163 337 338 0
c gate 339 -41 -105 0
-41 -339 0
-105 -339 0
41 105 339 0
c gate 340 142 -339 0
142 -340 0
-339 -340 0
-142 339 340 0
c gate 341 145 340 0
145 -341 0
340 -341 0
-145 -340 341 0
c gate 342 -338 341 0
-338 -342 0
341 -342 0
338 -341 342 0
c gate 343 150 -342 0
150 -343 0
-342 -343 0
-150 342 343 0
c gate 344 -45 -109 0
-45 -344 0
-109 -344 0
45 109 344 0
c gate 345 -44 -108 0
-44 -345 0
-108 -345 0
44 108 345 0
c gate 346 -344 -345 0
-344 -346 0
-345 -346 0
344 345 346 0
c gate 347 131 346 0
131 -347 0
346 -347 0
-131 -346 347 0
c gate 348 -343 347 0
-343 -348 0
347 -348 0
343 -347 348 0
c gate 349 139 -348 0
139 -349 0
-348 -349 0
-139 348 349 0
c gate 350 -254 336 0
-254 -350 0
336 -350 0
254 -336 350 0
c gate 351 -48 -112 0
-48 -351 0
-112 -351 0
48 112 351 0
c gate 352 -139 -351 0
-139 -352 0
-351 -352 0
139 351 352 0
c gate 353 -150 -345 0
-150 -353 0
-345 -353 0
150 345 353 0
c gate 354 163 -353 0
163 -354 0
-353 -354 0
-163 353 354 0
c gate 355 -352 354 0
-352 -355 0
354 -355 0
352 -354 355 0
c gate 356 -350 355 0
-350 -356 0
355 -356 0
350 -355 356 0
c gate 357 50 114 0
50 -357 0
114 -357 0
-50 -114 357 0
c gate 358 -56 -120 0
-56 -358 0
-120 -358 0
56 120 358 0
c gate 359 -54 -118 0
-54 -359 0
-118 -359 0
54 118 359 0
c gate 360 -55 -119 0
-55 -360 0
-119 -360 0
55 119 360 0
c gate 361 -359 -360 0
-359 -361 0
-360 -361 0
359 360 361 0
c gate 362 53 117 0
53 -362 0
117 -362 0
-53 -117 362 0
c gate 363 54 118 0
54 -363 0
118 -363 0
-54 -118 363 0
c gate 364 -362 -363 0
-362 -364 0
-363 -364 0
362 363 364 0
c gate 365 361 -364 0
361 -365 0
-364 -365 0
-361 364 365 0
c gate 366 55 119 0
55 -366 0
119 -366 0
-55 -119 366 0
c gate 367 56 120 0
56 -367 0
120 -367 0
-56 -120 367 0
c gate 368 -358 -367 0
-358 -368 0
-367 -368 0
358 367 368 0
c gate 369 -366 368 0
-366 -369 0
368 -369 0
366 -368 369 0
c gate 370 -365 369 0
-365 -370 0
369 -370 0
365 -369 370 0
c gate 371 -358 -370 0
-358 -371 0
-370 -371 0
358 370 371 0
c gate 372 51 115 0
51 -372 0
115 -372 0
-51 -115 372 0
c gate 373 52 116 0
52 -373 0
116 -373 0
-52 -116 373 0
c gate 374 -372 -373 0
-372 -374 0
-373 -374 0
372 373 374 0
c gate 375 49 113 0
49 -375 0
113 -375 0
-49 -113 375 0
c gate 376 -357 -375 0
-357 -376 0
-375 -376 0
357 375 376 0
c gate 377 -50 -114 0
-50 -377 0
-114 -377 0
50 114 377 0
c gate 378 -51 -115 0
-51 -378 0
-115 -378 0
51 115 378 0
c gate 379 -377 -378 0
-377 -379 0
-378 -379 0
377 378 379 0
c gate 380 -376 379 0
-376 -380 0
379 -380 0
376 -379 380 0
c gate 381 374 -380 0
374 -381 0
-380 -381 0
-374 380 381 0
c gate 382 -53 -117 0
-53 -382 0
-117 -382 0
53 117 382 0
c gate 383 -52 -116 0
-52 -383 0
-116 -383 0
52 116 383 0
c gate 384 -382 -383 0
-382 -384 0
-383 -384 0
382 383 384 0
c gate 385 361 384 0
361 -385 0
384 -385 0
-361 -384 385 0
c gate 386 370 385 0
370 -386 0
385 -386 0
-370 -385 386 0
c gate 387 -381 386 0
-381 -387 0
386 -387 0
381 -386 387 0
c gate 388 -371 -387 0
-371 -388 0
-387 -388 0
371 387 388 0
c gate 389 57 121 0
57 -389 0
121 -389 0
-57 -121 389 0
c gate 390 58 122 0
58 -390 0
122 -390 0
-58 -122 390 0
c gate 391 -389 -390 0
-389 -391 0
-390 -391 0
389 390 391 0
c gate 392 -57 -121 0
-57 -392 0
-121 -392 0
57 121 392 0
c gate 393 -60 -124 0
-60 -393 0
-124 -393 0
60 124 393 0
c gate 394 -392 -393 0
-392 -394 0
-393 -394 0
392 393 394 0
c gate 395 391 394 0
391 -395 0
394 -395 0
-391 -394 395 0
c gate 396 -58 -122 0
-58 -396 0
-122 -396 0
58 122 396 0
c gate 397 -59 -123 0
-59 -397 0
-123 -397 0
59 123 397 0
c gate 398 -396 -397 0
-396 -398 0
-397 -398 0
396 397 398 0
c gate 399 59 123 0
59 -399 0
123 -399 0
-59 -123 399 0
c gate 400 60 124 0
60 -400 0
124 -400 0
-60 -124 400 0
c gate 401 -399 -400 0
-399 -401 0
-400 -401 0
399 400 401 0
c gate 402 398 401 0
398 -402 0
401 -402 0
-398 -401 402 0
c gate 403 395 402 0
395 -403 0
402 -403 0
-395 -402 403 0
c gate 404 -388 403 0
-388 -404 0
403 -404 0
388 -403 404 0
c gate 405 -391 398 0
-391 -405 0
398 -405 0
391 -398 405 0
c gate 406 401 -405 0
401 -406 0
-405 -406 0
-401 405 406 0
c gate 407 -393 -406 0
-393 -407 0
-406 -407 0
393 406 407 0
c gate 408 -404 -407 0
-404 -408 0
-407 -408 0
404 407 408 0
c gate 409 -61 -125 0
-61 -409 0
-125 -409 0
61 125 409 0
c gate 410 -408 -409 0
-408 -410 0
-409 -410 0
408 409 410 0
c gate 411 61 125 0
61 -411 0
125 -411 0
-61 -125 411 0
c gate 412 -409 -411 0
-409 -412 0
-411 -412 0
409 411 412 0
c gate 413 -63 -127 0
-63 -413 0
-127 -413 0
63 127 413 0
c gate 414 63 127 0
63 -414 0
127 -414 0
-63 -127 414 0
c gate 415 -413 -414 0
-413 -415 0
-414 -415 0
413 414 415 0
c gate 416 412 415 0
412 -416 0
415 -416 0
-412 -415 416 0
c gate 417 64 -128 0
64 -417 0
-128 -417 0
-64 128 417 0
c gate 418 -64 128 0
-64 -418 0
128 -418 0
64 -128 418 0
c gate 419 -417 -418 0
-417 -419 0
-418 -419 0
417 418 419 0
c gate 420 62 -126 0
62 -420 0
-126 -420 0
-62 126 420 0
c gate 421 -62 126 0
-62 -421 0
126 -421 0
62 -126 421 0
c gate 422 -420 -421 0
-420 -422 0
-421 -422 0
420 421 422 0
c gate 423 -419 -422 0
-419 -423 0
-422 -423 0
419 422 423 0
c gate 424 416 423 0
416 -424 0
423 -424 0
-416 -423 424 0
c gate 425 -410 424 0
-410 -425 0
424 -425 0
410 -424 425 0
c gate 426 374 -378 0
374 -426 0
-378 -426 0
-374 378 426 0
c gate 427 403 426 0
403 -427 0
426 -427 0
-403 -426 427 0
c gate 428 386 427 0
386 -428 0
427 -428 0
-386 -427 428 0
c gate 429 425 428 0
425 -429 0
428 -429 0
-425 -428 429 0
c gate 430 -357 -429 0
-357 -430 0
-429 -430 0
357 429 430 0
c gate 431 -356 430 0
-356 -431 0
430 -431 0
356 -430 431 0
c gate 432 -49 -113 0
-49 -432 0
-113 -432 0
49 113 432 0
c gate 433 -351 -377 0
-351 -433 0
-377 -433 0
351 377 433 0
c gate 434 -432 433 0
-432 -434 0
433 -434 0
432 -433 434 0
c gate 435 376 434 0
376 -435 0
434 -435 0
-376 -434 435 0
c gate 436 -431 435 0
-431 -436 0
435 -436 0
431 -435 436 0
c gate 437 -349 436 0
-349 -437 0
436 -437 0
349 -436 437 0
c gate 438 247 328 0
247 -438 0
328 -438 0
-247 -328 438 0
c gate 439 -408 425 0
-408 -439 0
425 -439 0
408 -425 439 0
c gate 440 -438 -439 0
-438 -440 0
-439 -440 0
438 439 440 0
c gate 441 -437 440 0
-437 -441 0
440 -441 0
437 -440 441 0
c PO
-441 0
